============================[ Problem Statistics ]=============================|                                                                             ||  Number of variables:          4242                                         ||  Number of clauses:            9793                                         ||  Parse time:                   0.20 s                                       ||                                                                             |============================[ Search Statistics ]==============================| Conflicts |          ORIGINAL         |          LEARNT          | Progress ||           |    Vars  Clauses Literals |    Limit  Clauses Lit/Cl |          |===============================================================================|       100 |    1591     5998   290219 |     2199      100     53 | 62.501 % |===============================================================================restarts              : 2conflicts             : 115            (351 /sec)decisions             : 285            (0.00 % random) (869 /sec)propagations          : 9881           (30125 /sec)conflict literals     : 6601           (95.76 % deleted)CPU time              : 0.328 sSATISFIABLE